Geometry = GenFormat {
27  S
Ti   O
1      1      0.000000000000001      1.967940000000001      6.359735683000000
2      2      0.000000000000000      0.000000000000000      6.000000000000001
3      2      1.967940000000001      1.967940000000001      6.719471366000001
4      1      0.000000000000001      5.903820000000001      6.359735683000000
5      2      0.000000000000001      3.935880000000000      6.000000000000001
6      2      1.967940000000002      5.903820000000001      6.719471366000001
7      1      0.000000000000001      9.839700000000002      6.359735683000000
8      2      0.000000000000001      7.871759999999999      6.000000000000001
9      2      1.967940000000002      9.839700000000002      6.719471366000001
10     1      0.000000000000001     13.775580000000000      6.359735683000000
11     2      0.000000000000001     11.807639999999999      6.000000000000001
12     2      1.967940000000002     13.775580000000000      6.719471366000001
13     2      1.967550066106549      3.935811231942136      9.394887760981149
14     1      1.969261285019404      5.711652703901160      8.634908124370863
15     2      2.043293160858510      7.517149633736733      9.256690898106541
16     2      3.933561200186911      5.722421979612530      8.351487123465374
17     2      1.676944133984685     10.464352947384949      9.907099665398890
18     2      0.033287938252892     14.381250149846453      8.187930636319305
19     2      1.677295710462432     13.151099761691890      9.907139781527572
20     2      3.400635694613749     11.807610939588187      8.452425437406404
21     1      0.357509272743234     11.807359926578531     10.022613310742569
22     1      1.969287528800221      2.160155074908745      8.634898867090838
23     2      2.043333628607880      0.354630866462015      9.256697035796638
24     1      2.020040304872873      9.249132290691385      8.543765611428519
25     2      0.033250090702519      9.234046833028646      8.187939387123622
26     2      3.933567250680467      2.149324324452433      8.351481502841892
27     1      2.020074381401220     14.366146231347889      8.543739665223521
0.000000000000000      0.000000000000000      0.000000000000000
3.935880000000000      0.000000000000000      0.000000000000000
0.000000000000001     15.743520000000000      0.000000000000000
0.000000000000001      0.000000000000001     25.000000000000000
}
Driver = ConjugateGradient {
  MaxForceComponent = 1E-4
  MaxSteps = 0
  LatticeOpt = No
  MovedAtoms = "1:-1"
  OutputPrefix = "geo_end"
  AppendGeometries = No
  ConvergentForcesOnly = Yes
  Constraints = {}
}
Hamiltonian = DFTB {
  Charge = 0.000000
  Filling = Fermi {
    Temperature [Kelvin] = 0.000000
    IndependentKFilling = No
  }
  KPointsAndWeights = SupercellFolding {
2 0 0
0 1 0
0 0 1
0.5 0.0 0.0
  }
  MaxAngularMomentum = {
    O = "p"
    Ti = "d"
  }
  SCC = No
  SlaterKosterFiles = Type2FileNames {
    Prefix = /home/mkb/DFT/dftb_parameters/tiorg/
    Separator = "-"
    Suffix = ".skf"
    LowerCaseTypeName = No
  }
  PolynomialRepulsive = {}
  OldRepulsiveSum = No
  OrbitalResolvedSCC = No
  OldSKInterpolation = No
  Eigensolver = DivideAndConquer {}
  Dispersion = {}
  ThirdOrder = No
  ThirdOrderFull = No
}
Options = {
  WriteResultsTag = Yes
  MullikenAnalysis = No
  WriteEigenvectors = No
  WriteAutotestTag = No
  WriteDetailedXML = No
  WriteDetailedOut = Yes
  WriteBandOut = Yes
  AtomResolvedEnergies = No
  RandomSeed = 0
  WriteHS = No
  WriteRealHS = No
  MinimiseMemoryUsage = No
  ShowFoldedCoords = No
}
ParserOptions = {
  IgnoreUnprocessedNodes = Yes
  ParserVersion = 4
  WriteHSDInput = Yes
  WriteXMLInput = No
  StopAfterParsing = No
}
Analysis = {
  ProjectStates = {}
}
