Geometry = GenFormat {
27  S
Ti   O
1      1      0.000000000000001      1.967940000000001      6.359735683000000
2      2      0.000000000000000      0.000000000000000      6.000000000000001
3      2      1.967940000000001      1.967940000000001      6.719471366000001
4      1      0.000000000000001      5.903820000000001      6.359735683000000
5      2      0.000000000000001      3.935880000000000      6.000000000000001
6      2      1.967940000000002      5.903820000000001      6.719471366000001
7      1      0.000000000000001      9.839700000000002      6.359735683000000
8      2      0.000000000000001      7.871759999999999      6.000000000000001
9      2      1.967940000000002      9.839700000000002      6.719471366000001
10     1      0.000000000000001     13.775580000000000      6.359735683000000
11     2      0.000000000000001     11.807639999999999      6.000000000000001
12     2      1.967940000000002     13.775580000000000      6.719471366000001
13     2      1.970379553393508      0.008457609260194      9.314585659742802
14     2      0.001559555106469     13.906715688725344      8.341262783716154
15     2      1.978249242724309      9.304621585873916     10.196067009868578
16     2      1.967195649677604     12.173119774023283      9.290416297985578
17     1      1.970536417293588     10.395793126472805      8.635875172862304
18     1      1.971071361677479      5.366023629650246      8.637880939207793
19     2      0.003847741863586      5.556417877292048      8.319561314525108
20     2      0.001664904887396     10.202650360384954      8.317560754469319
21     1      1.969264504583963      1.799405126185208      8.623354914277215
22     2      1.978564166224993      6.458407095013322     10.200188421534250
23     2      1.966677653029383      3.585931782742214      9.288325318359163
24     1      1.968321700862310     13.960797173352821      8.622706662519379
25     1      1.971286986685304      7.882319286125677     11.285100866881274
26     2      0.002562242797214      7.880230462251689     11.808634147872029
27     2      0.000810855780068      1.854248270892136      8.343317925163939
0.000000000000000      0.000000000000000      0.000000000000000
3.935880000000000      0.000000000000000      0.000000000000000
0.000000000000001     15.743520000000000      0.000000000000000
0.000000000000001      0.000000000000001     25.000000000000000
}
Driver = ConjugateGradient {
  MaxForceComponent = 1E-4
  MaxSteps = 0
  LatticeOpt = No
  MovedAtoms = "1:-1"
  OutputPrefix = "geo_end"
  AppendGeometries = No
  ConvergentForcesOnly = Yes
  Constraints = {}
}
Hamiltonian = DFTB {
  Charge = 0.000000
  Filling = Fermi {
    Temperature [Kelvin] = 0.000000
    IndependentKFilling = No
  }
  KPointsAndWeights = SupercellFolding {
2 0 0
0 1 0
0 0 1
0.5 0.0 0.0
  }
  MaxAngularMomentum = {
    O = "p"
    Ti = "d"
  }
  SCC = No
  SlaterKosterFiles = Type2FileNames {
    Prefix = /home/mkb/DFT/dftb_parameters/tiorg/
    Separator = "-"
    Suffix = ".skf"
    LowerCaseTypeName = No
  }
  PolynomialRepulsive = {}
  OldRepulsiveSum = No
  OrbitalResolvedSCC = No
  OldSKInterpolation = No
  Eigensolver = DivideAndConquer {}
  Dispersion = {}
  ThirdOrder = No
  ThirdOrderFull = No
}
Options = {
  WriteResultsTag = Yes
  MullikenAnalysis = No
  WriteEigenvectors = No
  WriteAutotestTag = No
  WriteDetailedXML = No
  WriteDetailedOut = Yes
  WriteBandOut = Yes
  AtomResolvedEnergies = No
  RandomSeed = 0
  WriteHS = No
  WriteRealHS = No
  MinimiseMemoryUsage = No
  ShowFoldedCoords = No
}
ParserOptions = {
  IgnoreUnprocessedNodes = Yes
  ParserVersion = 4
  WriteHSDInput = Yes
  WriteXMLInput = No
  StopAfterParsing = No
}
Analysis = {
  ProjectStates = {}
}
