Geometry = GenFormat {
27  S
Ti   O
1      1      0.000000000000001      1.967940000000001      6.359735683000000
2      2      0.000000000000000      0.000000000000000      6.000000000000001
3      2      1.967940000000001      1.967940000000001      6.719471366000001
4      1      0.000000000000001      5.903820000000001      6.359735683000000
5      2      0.000000000000001      3.935880000000000      6.000000000000001
6      2      1.967940000000002      5.903820000000001      6.719471366000001
7      1      0.000000000000001      9.839700000000002      6.359735683000000
8      2      0.000000000000001      7.871759999999999      6.000000000000001
9      2      1.967940000000002      9.839700000000002      6.719471366000001
10     1      0.000000000000001     13.775580000000000      6.359735683000000
11     2      0.000000000000001     11.807639999999999      6.000000000000001
12     2      1.967940000000002     13.775580000000000      6.719471366000001
13     2      1.883060818756702      3.956614090846305      9.294271898057161
14     1      1.959583837319273      2.105504378851086      8.634107352618194
15     1      1.933971770547422     14.198920237480326      8.684396272511844
16     2      3.813865629981898     11.781858495589400     12.009274343421628
17     1      1.910162048872021      9.389051447164343      8.621982783475975
18     2      3.911551502185388     14.058533820710249      8.329466145169945
19     2      3.905632508627236      5.801188529818407      8.351802363115333
20     2      1.907286086252714     10.429045798073870     10.216035969519151
21     2      1.936679826664810      0.248833446069199      9.042582601395202
22     2      3.907081530598810      2.156484186211874      8.333337838099251
23     2      1.880775439822115      7.629332655923199      9.059611566896825
24     2      1.878420381089505     13.198236547111385     10.293114891123651
25     1      1.884958492995174     11.788223076458117     11.492007079879018
26     2      3.891830290810835      9.593976523404173      8.318759345735030
27     1      1.956881884141161      5.747967923819120      8.643619474425201
0.000000000000000      0.000000000000000      0.000000000000000
3.935880000000000      0.000000000000000      0.000000000000000
0.000000000000001     15.743520000000000      0.000000000000000
0.000000000000001      0.000000000000001     25.000000000000000
}
Driver = ConjugateGradient {
  MaxForceComponent = 1E-4
  MaxSteps = 0
  LatticeOpt = No
  MovedAtoms = "1:-1"
  OutputPrefix = "geo_end"
  AppendGeometries = No
  ConvergentForcesOnly = Yes
  Constraints = {}
}
Hamiltonian = DFTB {
  Charge = 0.000000
  Filling = Fermi {
    Temperature [Kelvin] = 0.000000
    IndependentKFilling = No
  }
  KPointsAndWeights = SupercellFolding {
2 0 0
0 1 0
0 0 1
0.5 0.0 0.0
  }
  MaxAngularMomentum = {
    O = "p"
    Ti = "d"
  }
  SCC = No
  SlaterKosterFiles = Type2FileNames {
    Prefix = /home/mkb/DFT/dftb_parameters/tiorg/
    Separator = "-"
    Suffix = ".skf"
    LowerCaseTypeName = No
  }
  PolynomialRepulsive = {}
  OldRepulsiveSum = No
  OrbitalResolvedSCC = No
  OldSKInterpolation = No
  Eigensolver = DivideAndConquer {}
  Dispersion = {}
  ThirdOrder = No
  ThirdOrderFull = No
}
Options = {
  WriteResultsTag = Yes
  MullikenAnalysis = No
  WriteEigenvectors = No
  WriteAutotestTag = No
  WriteDetailedXML = No
  WriteDetailedOut = Yes
  WriteBandOut = Yes
  AtomResolvedEnergies = No
  RandomSeed = 0
  WriteHS = No
  WriteRealHS = No
  MinimiseMemoryUsage = No
  ShowFoldedCoords = No
}
ParserOptions = {
  IgnoreUnprocessedNodes = Yes
  ParserVersion = 4
  WriteHSDInput = Yes
  WriteXMLInput = No
  StopAfterParsing = No
}
Analysis = {
  ProjectStates = {}
}
