Geometry = GenFormat {
27  S
Ti   O
1      1      0.000000000000001      1.967940000000001      6.359735683000000
2      2      0.000000000000000      0.000000000000000      6.000000000000001
3      2      1.967940000000001      1.967940000000001      6.719471366000001
4      1      0.000000000000001      5.903820000000001      6.359735683000000
5      2      0.000000000000001      3.935880000000000      6.000000000000001
6      2      1.967940000000002      5.903820000000001      6.719471366000001
7      1      0.000000000000001      9.839700000000002      6.359735683000000
8      2      0.000000000000001      7.871759999999999      6.000000000000001
9      2      1.967940000000002      9.839700000000002      6.719471366000001
10     1      0.000000000000001     13.775580000000000      6.359735683000000
11     2      0.000000000000001     11.807639999999999      6.000000000000001
12     2      1.967940000000002     13.775580000000000      6.719471366000001
13     1      1.966783173506476      6.051333586142777      8.641667493505583
14     2      3.935274806950038      6.009288211269105      8.312401476880526
15     2      1.967790437896952      4.280428750300258      9.323110129842004
16     1      1.966721559001466      9.728517532325004      8.638772754982973
17     2      3.894635296576301     11.775213416036307     11.434764343245478
18     2      1.946954402535154     11.594946089564660      9.297973220963613
19     1      1.926869990827032     11.961269756929111     11.183780552006924
20     2      1.961326513775444      7.902918059261033      9.096151599629488
21     2      1.926115327072483     13.773907672231026     10.632665906141717
22     1      1.964381634659892     13.515519762234510      8.661888347556607
23     1      1.971079692057840      2.509331427933128      8.579030924379902
24     2      3.934066129818027      2.487190862410020      8.281632970882786
25     2      1.978310672616733      0.985685906603025      9.530041840355375
26     2      3.934455816406146      9.780734111571933      8.342604842106708
27     2      3.928931081010834     13.621363530095367      8.348764909113367
0.000000000000000      0.000000000000000      0.000000000000000
3.935880000000000      0.000000000000000      0.000000000000000
0.000000000000001     15.743520000000000      0.000000000000000
0.000000000000001      0.000000000000001     25.000000000000000
}
Driver = ConjugateGradient {
  MaxForceComponent = 1E-4
  MaxSteps = 0
  LatticeOpt = No
  MovedAtoms = "1:-1"
  OutputPrefix = "geo_end"
  AppendGeometries = No
  ConvergentForcesOnly = Yes
  Constraints = {}
}
Hamiltonian = DFTB {
  Charge = 0.000000
  Filling = Fermi {
    Temperature [Kelvin] = 0.000000
    IndependentKFilling = No
  }
  KPointsAndWeights = SupercellFolding {
2 0 0
0 1 0
0 0 1
0.5 0.0 0.0
  }
  MaxAngularMomentum = {
    O = "p"
    Ti = "d"
  }
  SCC = No
  SlaterKosterFiles = Type2FileNames {
    Prefix = /home/mkb/DFT/dftb_parameters/tiorg/
    Separator = "-"
    Suffix = ".skf"
    LowerCaseTypeName = No
  }
  PolynomialRepulsive = {}
  OldRepulsiveSum = No
  OrbitalResolvedSCC = No
  OldSKInterpolation = No
  Eigensolver = DivideAndConquer {}
  Dispersion = {}
  ThirdOrder = No
  ThirdOrderFull = No
}
Options = {
  WriteResultsTag = Yes
  MullikenAnalysis = No
  WriteEigenvectors = No
  WriteAutotestTag = No
  WriteDetailedXML = No
  WriteDetailedOut = Yes
  WriteBandOut = Yes
  AtomResolvedEnergies = No
  RandomSeed = 0
  WriteHS = No
  WriteRealHS = No
  MinimiseMemoryUsage = No
  ShowFoldedCoords = No
}
ParserOptions = {
  IgnoreUnprocessedNodes = Yes
  ParserVersion = 4
  WriteHSDInput = Yes
  WriteXMLInput = No
  StopAfterParsing = No
}
Analysis = {
  ProjectStates = {}
}
