Geometry = GenFormat {
27  S
Ti   O
1      1      0.000000000000001      1.967940000000001      6.359735683000000
2      2      0.000000000000000      0.000000000000000      6.000000000000001
3      2      1.967940000000001      1.967940000000001      6.719471366000001
4      1      0.000000000000001      5.903820000000001      6.359735683000000
5      2      0.000000000000001      3.935880000000000      6.000000000000001
6      2      1.967940000000002      5.903820000000001      6.719471366000001
7      1      0.000000000000001      9.839700000000002      6.359735683000000
8      2      0.000000000000001      7.871759999999999      6.000000000000001
9      2      1.967940000000002      9.839700000000002      6.719471366000001
10     1      0.000000000000001     13.775580000000000      6.359735683000000
11     2      0.000000000000001     11.807639999999999      6.000000000000001
12     2      1.967940000000002     13.775580000000000      6.719471366000001
13     2      1.970654692193757      7.430629855836231      9.536407525699254
14     2      0.085512253212397      2.361575074926798      8.331732599027504
15     2      1.884404699792980      4.306802545194490      9.896366370037827
16     2      2.093675755103452     13.244928573547154     10.640581313509578
17     2      3.913460718327928     14.467614139474200      8.314077653995598
18     2      1.904005920904630      0.787268724282431      4.440071448007022
19     2      3.889907326658856      5.486609262077047      8.413778680816229
20     2      1.996971182840720     10.315501888293870      9.963225796569608
21     2      0.126726802531462     11.986272427227501      8.778879620760861
22     1      2.101301250889024     12.026611967497226      9.161370751868763
23     1      0.158890767377223     13.771033661885680     10.714118650696401
24     2      0.001210759451960      9.192129228082415      8.255896984169310
25     1      1.921811383547727      5.867066671767630      8.635055559190279
26     1      1.967077988011021      9.050846120820262      8.577681813485913
27     1      3.916193511606857      3.792102625241812      9.458257224551314
0.000000000000000      0.000000000000000      0.000000000000000
3.935880000000000      0.000000000000000      0.000000000000000
0.000000000000001     15.743520000000000      0.000000000000000
0.000000000000001      0.000000000000001     25.000000000000000
}
Driver = ConjugateGradient {
  MaxForceComponent = 1E-4
  MaxSteps = 0
  LatticeOpt = No
  MovedAtoms = "1:-1"
  OutputPrefix = "geo_end"
  AppendGeometries = No
  ConvergentForcesOnly = Yes
  Constraints = {}
}
Hamiltonian = DFTB {
  Charge = 0.000000
  Filling = Fermi {
    Temperature [Kelvin] = 0.000000
    IndependentKFilling = No
  }
  KPointsAndWeights = SupercellFolding {
2 0 0
0 1 0
0 0 1
0.5 0.0 0.0
  }
  MaxAngularMomentum = {
    O = "p"
    Ti = "d"
  }
  SCC = No
  SlaterKosterFiles = Type2FileNames {
    Prefix = /home/mkb/DFT/dftb_parameters/tiorg/
    Separator = "-"
    Suffix = ".skf"
    LowerCaseTypeName = No
  }
  PolynomialRepulsive = {}
  OldRepulsiveSum = No
  OrbitalResolvedSCC = No
  OldSKInterpolation = No
  Eigensolver = DivideAndConquer {}
  Dispersion = {}
  ThirdOrder = No
  ThirdOrderFull = No
}
Options = {
  WriteResultsTag = Yes
  MullikenAnalysis = No
  WriteEigenvectors = No
  WriteAutotestTag = No
  WriteDetailedXML = No
  WriteDetailedOut = Yes
  WriteBandOut = Yes
  AtomResolvedEnergies = No
  RandomSeed = 0
  WriteHS = No
  WriteRealHS = No
  MinimiseMemoryUsage = No
  ShowFoldedCoords = No
}
ParserOptions = {
  IgnoreUnprocessedNodes = Yes
  ParserVersion = 4
  WriteHSDInput = Yes
  WriteXMLInput = No
  StopAfterParsing = No
}
Analysis = {
  ProjectStates = {}
}
